c THIS FORMULA IS GENERATED BY CNF
c 
c atomics
c X_PI <= 42.09_2_s:1
c X_PI <= 42.09_1_s:2
c C_2_2:3
c X_GS <= 37.89_1_n:4
c X_PI <= 48.12_2_p:5
c X_GS <= 37.89_2_s:6
c X_PI <= 48.12_1_n:7
c X_GS <= 37.89_2_p:8
c X_PI <= 42.09_1_n:9
c X_PI <= 48.12_2_n:10
c X_PI <= 48.12_2_s:11
c X_PI <= 42.09_2_p:12
c X_GS <= 37.89_2_n:13
c X_PI <= 48.12_1_s:14
c X_PI <= 42.09_1_p:15
c X_GS <= 37.89_1_p:16
c C_1_2:17
c X_PI <= 48.12_1_p:18
c C_1_1:19
c X_GS <= 37.89_1_s:20
c C_2_1:21
c X_PI <= 42.09_2_n:22
c end atomics
p cnf 22 179
15 -15 -15 0
15 -15 -9 0
15 -15 2 0
15 9 -15 0
15 9 -9 0
15 9 2 0
15 -2 -15 0
15 -2 -9 0
15 -2 2 0
-9 -15 -15 0
-9 -15 -9 0
-9 -15 2 0
-9 9 -15 0
-9 9 -9 0
-9 9 2 0
-9 -2 -15 0
-9 -2 -9 0
-9 -2 2 0
-2 -15 -15 0
-2 -15 -9 0
-2 -15 2 0
-2 9 -15 0
-2 9 -9 0
-2 9 2 0
-2 -2 -15 0
-2 -2 -9 0
-2 -2 2 0
18 -18 -18 0
18 -18 -7 0
18 -18 14 0
18 7 -18 0
18 7 -7 0
18 7 14 0
18 -14 -18 0
18 -14 -7 0
18 -14 14 0
-7 -18 -18 0
-7 -18 -7 0
-7 -18 14 0
-7 7 -18 0
-7 7 -7 0
-7 7 14 0
-7 -14 -18 0
-7 -14 -7 0
-7 -14 14 0
-14 -18 -18 0
-14 -18 -7 0
-14 -18 14 0
-14 7 -18 0
-14 7 -7 0
-14 7 14 0
-14 -14 -18 0
-14 -14 -7 0
-14 -14 14 0
16 -16 -16 0
16 -16 -4 0
16 -16 20 0
16 4 -16 0
16 4 -4 0
16 4 20 0
16 -20 -16 0
16 -20 -4 0
16 -20 20 0
-4 -16 -16 0
-4 -16 -4 0
-4 -16 20 0
-4 4 -16 0
-4 4 -4 0
-4 4 20 0
-4 -20 -16 0
-4 -20 -4 0
-4 -20 20 0
-20 -16 -16 0
-20 -16 -4 0
-20 -16 20 0
-20 4 -16 0
-20 4 -4 0
-20 4 20 0
-20 -20 -16 0
-20 -20 -4 0
-20 -20 20 0
12 -12 -12 0
12 -12 -22 0
12 -12 1 0
12 22 -12 0
12 22 -22 0
12 22 1 0
12 -1 -12 0
12 -1 -22 0
12 -1 1 0
-22 -12 -12 0
-22 -12 -22 0
-22 -12 1 0
-22 22 -12 0
-22 22 -22 0
-22 22 1 0
-22 -1 -12 0
-22 -1 -22 0
-22 -1 1 0
-1 -12 -12 0
-1 -12 -22 0
-1 -12 1 0
-1 22 -12 0
-1 22 -22 0
-1 22 1 0
-1 -1 -12 0
-1 -1 -22 0
-1 -1 1 0
5 -5 -5 0
5 -5 -10 0
5 -5 11 0
5 10 -5 0
5 10 -10 0
5 10 11 0
5 -11 -5 0
5 -11 -10 0
5 -11 11 0
-10 -5 -5 0
-10 -5 -10 0
-10 -5 11 0
-10 10 -5 0
-10 10 -10 0
-10 10 11 0
-10 -11 -5 0
-10 -11 -10 0
-10 -11 11 0
-11 -5 -5 0
-11 -5 -10 0
-11 -5 11 0
-11 10 -5 0
-11 10 -10 0
-11 10 11 0
-11 -11 -5 0
-11 -11 -10 0
-11 -11 11 0
8 -8 -8 0
8 -8 -13 0
8 -8 6 0
8 13 -8 0
8 13 -13 0
8 13 6 0
8 -6 -8 0
8 -6 -13 0
8 -6 6 0
-13 -8 -8 0
-13 -8 -13 0
-13 -8 6 0
-13 13 -8 0
-13 13 -13 0
-13 13 6 0
-13 -6 -8 0
-13 -6 -13 0
-13 -6 6 0
-6 -8 -8 0
-6 -8 -13 0
-6 -8 6 0
-6 13 -8 0
-6 13 -13 0
-6 13 6 0
-6 -6 -8 0
-6 -6 -13 0
-6 -6 6 0
-2 -14 -20 0
-1 -11 -6 0
15 18 4 0
12 5 13 0
-15 -19 0
-7 -19 0
-16 -19 0
-12 -21 0
-10 -21 0
-8 -21 0
-15 -17 0
-7 -17 0
-16 -17 0
-12 -3 0
-10 -3 0
-8 -3 0
19 21 0
17 3 0
